HFVRP/X209-FSMFD.vrp
NAME: X209-FSMFD
COMMENT: Generated by Uchoa, Pecin, Pessoa, Poggi, Subramanian, and Vidal (2013). Modified by Sadykov, Pessoa and Uchoa (2017). Converted to PyVRP's VRPLIB dialect.
TYPE: HFVRP
DIMENSION: 209
VEHICLES: 624
EDGE_WEIGHT_TYPE: EUC_2D
NODE_COORD_SECTION
1	0	0
2	487	949
3	492	770
4	150	556
5	130	719
6	962	393
7	54	890
8	861	705
9	338	631
10	119	741
11	48	296
12	982	827
13	18	954
14	558	698
15	857	337
16	963	72
17	218	46
18	705	484
19	315	3
20	331	358
21	688	156
22	314	338
23	214	428
24	193	866
25	381	924
26	968	10
27	797	382
28	733	544
29	956	878
30	576	270
31	257	778
32	713	605
33	270	940
34	880	401
35	245	168
36	973	29
37	888	919
38	943	703
39	364	248
40	932	60
41	575	18
42	663	990
43	667	351
44	85	708
45	801	330
46	261	91
47	163	953
48	509	249
49	237	336
50	791	356
51	314	168
52	356	726
53	260	412
54	630	144
55	534	255
56	356	444
57	448	320
58	987	333
59	691	109
60	319	476
61	83	716
62	395	818
63	605	769
64	633	162
65	651	644
66	221	4
67	551	912
68	762	604
69	337	41
70	156	318
71	756	357
72	749	173
73	535	235
74	719	700
75	900	564
76	717	4
77	337	441
78	759	103
79	615	132
80	365	498
81	42	268
82	952	2
83	989	303
84	471	821
85	650	215
86	302	881
87	61	459
88	391	405
89	364	170
90	643	744
91	324	620
92	559	449
93	92	914
94	133	607
95	223	949
96	988	415
97	943	616
98	764	6
99	659	250
100	766	532
101	730	338
102	850	489
103	481	467
104	564	296
105	469	531
106	538	121
107	997	183
108	127	966
109	880	538
110	300	985
111	462	125
112	781	68
113	884	92
114	438	673
115	591	658
116	928	894
117	107	816
118	581	799
119	46	288
120	548	0
121	379	725
122	186	490
123	947	161
124	702	712
125	230	722
126	40	891
127	362	568
128	26	614
129	396	104
130	756	658
131	818	433
132	236	62
133	314	56
134	276	466
135	789	828
136	626	677
137	626	156
138	369	506
139	207	461
140	566	842
141	676	871
142	135	983
143	956	181
144	5	209
145	10	57
146	499	617
147	369	482
148	975	194
149	882	465
150	716	147
151	740	993
152	77	480
153	742	233
154	869	824
155	809	987
156	999	514
157	748	391
158	366	917
159	272	875
160	0	9
161	260	359
162	449	208
163	278	711
164	422	445
165	341	448
166	683	498
167	930	690
168	184	567
169	257	360
170	464	101
171	783	645
172	282	884
173	978	688
174	514	349
175	343	552
176	290	171
177	675	414
178	386	86
179	575	26
180	863	973
181	223	412
182	958	176
183	391	824
184	228	93
185	704	946
186	938	995
187	159	343
188	698	106
189	896	169
190	361	937
191	201	120
192	158	852
193	786	630
194	91	909
195	291	333
196	575	931
197	60	763
198	321	837
199	154	302
200	490	215
201	612	394
202	70	159
203	972	987
204	527	340
205	34	241
206	688	334
207	878	485
208	885	205
209	124	413
DEMAND_SECTION
1	0
2	7
3	6
4	7
5	8
6	10
7	7
8	7
9	10
10	8
11	5
12	6
13	5
14	6
15	5
16	8
17	5
18	8
19	6
20	6
21	7
22	5
23	9
24	10
25	6
26	6
27	6
28	7
29	8
30	9
31	7
32	6
33	6
34	10
35	5
36	5
37	8
38	10
39	9
40	9
41	6
42	7
43	9
44	9
45	10
46	9
47	10
48	10
49	8
50	7
51	10
52	5
53	9
54	8
55	7
56	5
57	9
58	10
59	6
60	9
61	6
62	5
63	8
64	8
65	6
66	8
67	8
68	6
69	6
70	5
71	10
72	8
73	6
74	9
75	6
76	8
77	10
78	7
79	9
80	7
81	10
82	6
83	10
84	6
85	8
86	6
87	8
88	5
89	5
90	7
91	10
92	5
93	7
94	5
95	10
96	9
97	6
98	6
99	9
100	10
101	8
102	9
103	6
104	8
105	5
106	6
107	7
108	10
109	9
110	7
111	9
112	7
113	10
114	9
115	8
116	6
117	5
118	8
119	7
120	7
121	8
122	7
123	5
124	7
125	5
126	5
127	7
128	7
129	7
130	7
131	5
132	6
133	7
134	5
135	9
136	5
137	8
138	9
139	10
140	8
141	8
142	10
143	6
144	9
145	9
146	10
147	5
148	8
149	5
150	9
151	5
152	8
153	9
154	10
155	7
156	8
157	10
158	6
159	8
160	9
161	5
162	6
163	7
164	5
165	9
166	6
167	8
168	10
169	9
170	5
171	6
172	9
173	5
174	7
175	6
176	8
177	10
178	7
179	8
180	9
181	7
182	10
183	9
184	6
185	9
186	7
187	7
188	10
189	5
190	5
191	6
192	9
193	9
194	6
195	6
196	8
197	7
198	9
199	10
200	6
201	6
202	10
203	5
204	8
205	7
206	5
207	10
208	8
209	10
CAPACITY_SECTION
1	43
2	43
3	43
4	43
5	43
6	43
7	43
8	43
9	43
10	43
11	43
12	43
13	43
14	43
15	43
16	43
17	43
18	43
19	43
20	43
21	43
22	43
23	43
24	43
25	43
26	43
27	43
28	43
29	43
30	43
31	43
32	43
33	43
34	43
35	43
36	43
37	43
38	43
39	43
40	43
41	43
42	43
43	43
44	43
45	43
46	43
47	43
48	43
49	43
50	43
51	43
52	43
53	43
54	43
55	43
56	43
57	43
58	43
59	43
60	43
61	43
62	43
63	43
64	43
65	43
66	43
67	43
68	43
69	43
70	43
71	43
72	43
73	43
74	43
75	43
76	43
77	43
78	43
79	43
80	43
81	43
82	43
83	43
84	43
85	43
86	43
87	43
88	43
89	43
90	43
91	43
92	43
93	43
94	43
95	43
96	43
97	43
98	43
99	43
100	43
101	43
102	43
103	43
104	43
105	43
106	43
107	43
108	43
109	43
110	43
111	43
112	43
113	43
114	43
115	43
116	43
117	43
118	43
119	43
120	43
121	43
122	43
123	43
124	43
125	43
126	43
127	43
128	43
129	43
130	43
131	43
132	43
133	43
134	43
135	43
136	43
137	43
138	43
139	43
140	43
141	43
142	43
143	43
144	43
145	43
146	43
147	43
148	43
149	43
150	43
151	43
152	43
153	43
154	43
155	43
156	43
157	43
158	43
159	43
160	43
161	43
162	43
163	43
164	43
165	43
166	43
167	43
168	43
169	43
170	43
171	43
172	43
173	43
174	43
175	43
176	43
177	43
178	43
179	43
180	43
181	43
182	43
183	43
184	43
185	43
186	43
187	43
188	43
189	43
190	43
191	43
192	43
193	43
194	43
195	43
196	43
197	43
198	43
199	43
200	43
201	43
202	43
203	43
204	43
205	43
206	43
207	43
208	43
209	87
210	87
211	87
212	87
213	87
214	87
215	87
216	87
217	87
218	87
219	87
220	87
221	87
222	87
223	87
224	87
225	87
226	87
227	87
228	87
229	87
230	87
231	87
232	87
233	87
234	87
235	87
236	87
237	87
238	87
239	87
240	87
241	87
242	87
243	87
244	87
245	87
246	87
247	87
248	87
249	87
250	87
251	87
252	87
253	87
254	87
255	87
256	87
257	87
258	87
259	87
260	87
261	87
262	87
263	87
264	87
265	87
266	87
267	87
268	87
269	87
270	87
271	87
272	87
273	87
274	87
275	87
276	87
277	87
278	87
279	87
280	87
281	87
282	87
283	87
284	87
285	87
286	87
287	87
288	87
289	87
290	87
291	87
292	87
293	87
294	87
295	87
296	87
297	87
298	87
299	87
300	87
301	87
302	87
303	87
304	87
305	87
306	87
307	87
308	87
309	87
310	87
311	87
312	87
313	87
314	87
315	87
316	87
317	87
318	87
319	87
320	87
321	87
322	87
323	87
324	87
325	87
326	87
327	87
328	87
329	87
330	87
331	87
332	87
333	87
334	87
335	87
336	87
337	87
338	87
339	87
340	87
341	87
342	87
343	87
344	87
345	87
346	87
347	87
348	87
349	87
350	87
351	87
352	87
353	87
354	87
355	87
356	87
357	87
358	87
359	87
360	87
361	87
362	87
363	87
364	87
365	87
366	87
367	87
368	87
369	87
370	87
371	87
372	87
373	87
374	87
375	87
376	87
377	87
378	87
379	87
380	87
381	87
382	87
383	87
384	87
385	87
386	87
387	87
388	87
389	87
390	87
391	87
392	87
393	87
394	87
395	87
396	87
397	87
398	87
399	87
400	87
401	87
402	87
403	87
404	87
405	87
406	87
407	87
408	87
409	87
410	87
411	87
412	87
413	87
414	87
415	87
416	87
417	173
418	173
419	173
420	173
421	173
422	173
423	173
424	173
425	173
426	173
427	173
428	173
429	173
430	173
431	173
432	173
433	173
434	173
435	173
436	173
437	173
438	173
439	173
440	173
441	173
442	173
443	173
444	173
445	173
446	173
447	173
448	173
449	173
450	173
451	173
452	173
453	173
454	173
455	173
456	173
457	173
458	173
459	173
460	173
461	173
462	173
463	173
464	173
465	173
466	173
467	173
468	173
469	173
470	173
471	173
472	173
473	173
474	173
475	173
476	173
477	173
478	173
479	173
480	173
481	173
482	173
483	173
484	173
485	173
486	173
487	173
488	173
489	173
490	173
491	173
492	173
493	173
494	173
495	173
496	173
497	173
498	173
499	173
500	173
501	173
502	173
503	173
504	173
505	173
506	173
507	173
508	173
509	173
510	173
511	173
512	173
513	173
514	173
515	173
516	173
517	173
518	173
519	173
520	173
521	173
522	173
523	173
524	173
525	173
526	173
527	173
528	173
529	173
530	173
531	173
532	173
533	173
534	173
535	173
536	173
537	173
538	173
539	173
540	173
541	173
542	173
543	173
544	173
545	173
546	173
547	173
548	173
549	173
550	173
551	173
552	173
553	173
554	173
555	173
556	173
557	173
558	173
559	173
560	173
561	173
562	173
563	173
564	173
565	173
566	173
567	173
568	173
569	173
570	173
571	173
572	173
573	173
574	173
575	173
576	173
577	173
578	173
579	173
580	173
581	173
582	173
583	173
584	173
585	173
586	173
587	173
588	173
589	173
590	173
591	173
592	173
593	173
594	173
595	173
596	173
597	173
598	173
599	173
600	173
601	173
602	173
603	173
604	173
605	173
606	173
607	173
608	173
609	173
610	173
611	173
612	173
613	173
614	173
615	173
616	173
617	173
618	173
619	173
620	173
621	173
622	173
623	173
624	173
VEHICLES_FIXED_COST_SECTION
1	28000
2	28000
3	28000
4	28000
5	28000
6	28000
7	28000
8	28000
9	28000
10	28000
11	28000
12	28000
13	28000
14	28000
15	28000
16	28000
17	28000
18	28000
19	28000
20	28000
21	28000
22	28000
23	28000
24	28000
25	28000
26	28000
27	28000
28	28000
29	28000
30	28000
31	28000
32	28000
33	28000
34	28000
35	28000
36	28000
37	28000
38	28000
39	28000
40	28000
41	28000
42	28000
43	28000
44	28000
45	28000
46	28000
47	28000
48	28000
49	28000
50	28000
51	28000
52	28000
53	28000
54	28000
55	28000
56	28000
57	28000
58	28000
59	28000
60	28000
61	28000
62	28000
63	28000
64	28000
65	28000
66	28000
67	28000
68	28000
69	28000
70	28000
71	28000
72	28000
73	28000
74	28000
75	28000
76	28000
77	28000
78	28000
79	28000
80	28000
81	28000
82	28000
83	28000
84	28000
85	28000
86	28000
87	28000
88	28000
89	28000
90	28000
91	28000
92	28000
93	28000
94	28000
95	28000
96	28000
97	28000
98	28000
99	28000
100	28000
101	28000
102	28000
103	28000
104	28000
105	28000
106	28000
107	28000
108	28000
109	28000
110	28000
111	28000
112	28000
113	28000
114	28000
115	28000
116	28000
117	28000
118	28000
119	28000
120	28000
121	28000
122	28000
123	28000
124	28000
125	28000
126	28000
127	28000
128	28000
129	28000
130	28000
131	28000
132	28000
133	28000
134	28000
135	28000
136	28000
137	28000
138	28000
139	28000
140	28000
141	28000
142	28000
143	28000
144	28000
145	28000
146	28000
147	28000
148	28000
149	28000
150	28000
151	28000
152	28000
153	28000
154	28000
155	28000
156	28000
157	28000
158	28000
159	28000
160	28000
161	28000
162	28000
163	28000
164	28000
165	28000
166	28000
167	28000
168	28000
169	28000
170	28000
171	28000
172	28000
173	28000
174	28000
175	28000
176	28000
177	28000
178	28000
179	28000
180	28000
181	28000
182	28000
183	28000
184	28000
185	28000
186	28000
187	28000
188	28000
189	28000
190	28000
191	28000
192	28000
193	28000
194	28000
195	28000
196	28000
197	28000
198	28000
199	28000
200	28000
201	28000
202	28000
203	28000
204	28000
205	28000
206	28000
207	28000
208	28000
209	65500
210	65500
211	65500
212	65500
213	65500
214	65500
215	65500
216	65500
217	65500
218	65500
219	65500
220	65500
221	65500
222	65500
223	65500
224	65500
225	65500
226	65500
227	65500
228	65500
229	65500
230	65500
231	65500
232	65500
233	65500
234	65500
235	65500
236	65500
237	65500
238	65500
239	65500
240	65500
241	65500
242	65500
243	65500
244	65500
245	65500
246	65500
247	65500
248	65500
249	65500
250	65500
251	65500
252	65500
253	65500
254	65500
255	65500
256	65500
257	65500
258	65500
259	65500
260	65500
261	65500
262	65500
263	65500
264	65500
265	65500
266	65500
267	65500
268	65500
269	65500
270	65500
271	65500
272	65500
273	65500
274	65500
275	65500
276	65500
277	65500
278	65500
279	65500
280	65500
281	65500
282	65500
283	65500
284	65500
285	65500
286	65500
287	65500
288	65500
289	65500
290	65500
291	65500
292	65500
293	65500
294	65500
295	65500
296	65500
297	65500
298	65500
299	65500
300	65500
301	65500
302	65500
303	65500
304	65500
305	65500
306	65500
307	65500
308	65500
309	65500
310	65500
311	65500
312	65500
313	65500
314	65500
315	65500
316	65500
317	65500
318	65500
319	65500
320	65500
321	65500
322	65500
323	65500
324	65500
325	65500
326	65500
327	65500
328	65500
329	65500
330	65500
331	65500
332	65500
333	65500
334	65500
335	65500
336	65500
337	65500
338	65500
339	65500
340	65500
341	65500
342	65500
343	65500
344	65500
345	65500
346	65500
347	65500
348	65500
349	65500
350	65500
351	65500
352	65500
353	65500
354	65500
355	65500
356	65500
357	65500
358	65500
359	65500
360	65500
361	65500
362	65500
363	65500
364	65500
365	65500
366	65500
367	65500
368	65500
369	65500
370	65500
371	65500
372	65500
373	65500
374	65500
375	65500
376	65500
377	65500
378	65500
379	65500
380	65500
381	65500
382	65500
383	65500
384	65500
385	65500
386	65500
387	65500
388	65500
389	65500
390	65500
391	65500
392	65500
393	65500
394	65500
395	65500
396	65500
397	65500
398	65500
399	65500
400	65500
401	65500
402	65500
403	65500
404	65500
405	65500
406	65500
407	65500
408	65500
409	65500
410	65500
411	65500
412	65500
413	65500
414	65500
415	65500
416	65500
417	149700
418	149700
419	149700
420	149700
421	149700
422	149700
423	149700
424	149700
425	149700
426	149700
427	149700
428	149700
429	149700
430	149700
431	149700
432	149700
433	149700
434	149700
435	149700
436	149700
437	149700
438	149700
439	149700
440	149700
441	149700
442	149700
443	149700
444	149700
445	149700
446	149700
447	149700
448	149700
449	149700
450	149700
451	149700
452	149700
453	149700
454	149700
455	149700
456	149700
457	149700
458	149700
459	149700
460	149700
461	149700
462	149700
463	149700
464	149700
465	149700
466	149700
467	149700
468	149700
469	149700
470	149700
471	149700
472	149700
473	149700
474	149700
475	149700
476	149700
477	149700
478	149700
479	149700
480	149700
481	149700
482	149700
483	149700
484	149700
485	149700
486	149700
487	149700
488	149700
489	149700
490	149700
491	149700
492	149700
493	149700
494	149700
495	149700
496	149700
497	149700
498	149700
499	149700
500	149700
501	149700
502	149700
503	149700
504	149700
505	149700
506	149700
507	149700
508	149700
509	149700
510	149700
511	149700
512	149700
513	149700
514	149700
515	149700
516	149700
517	149700
518	149700
519	149700
520	149700
521	149700
522	149700
523	149700
524	149700
525	149700
526	149700
527	149700
528	149700
529	149700
530	149700
531	149700
532	149700
533	149700
534	149700
535	149700
536	149700
537	149700
538	149700
539	149700
540	149700
541	149700
542	149700
543	149700
544	149700
545	149700
546	149700
547	149700
548	149700
549	149700
550	149700
551	149700
552	149700
553	149700
554	149700
555	149700
556	149700
557	149700
558	149700
559	149700
560	149700
561	149700
562	149700
563	149700
564	149700
565	149700
566	149700
567	149700
568	149700
569	149700
570	149700
571	149700
572	149700
573	149700
574	149700
575	149700
576	149700
577	149700
578	149700
579	149700
580	149700
581	149700
582	149700
583	149700
584	149700
585	149700
586	149700
587	149700
588	149700
589	149700
590	149700
591	149700
592	149700
593	149700
594	149700
595	149700
596	149700
597	149700
598	149700
599	149700
600	149700
601	149700
602	149700
603	149700
604	149700
605	149700
606	149700
607	149700
608	149700
609	149700
610	149700
611	149700
612	149700
613	149700
614	149700
615	149700
616	149700
617	149700
618	149700
619	149700
620	149700
621	149700
622	149700
623	149700
624	149700
VEHICLES_UNIT_DISTANCE_COST_SECTION
1	50
2	50
3	50
4	50
5	50
6	50
7	50
8	50
9	50
10	50
11	50
12	50
13	50
14	50
15	50
16	50
17	50
18	50
19	50
20	50
21	50
22	50
23	50
24	50
25	50
26	50
27	50
28	50
29	50
30	50
31	50
32	50
33	50
34	50
35	50
36	50
37	50
38	50
39	50
40	50
41	50
42	50
43	50
44	50
45	50
46	50
47	50
48	50
49	50
50	50
51	50
52	50
53	50
54	50
55	50
56	50
57	50
58	50
59	50
60	50
61	50
62	50
63	50
64	50
65	50
66	50
67	50
68	50
69	50
70	50
71	50
72	50
73	50
74	50
75	50
76	50
77	50
78	50
79	50
80	50
81	50
82	50
83	50
84	50
85	50
86	50
87	50
88	50
89	50
90	50
91	50
92	50
93	50
94	50
95	50
96	50
97	50
98	50
99	50
100	50
101	50
102	50
103	50
104	50
105	50
106	50
107	50
108	50
109	50
110	50
111	50
112	50
113	50
114	50
115	50
116	50
117	50
118	50
119	50
120	50
121	50
122	50
123	50
124	50
125	50
126	50
127	50
128	50
129	50
130	50
131	50
132	50
133	50
134	50
135	50
136	50
137	50
138	50
139	50
140	50
141	50
142	50
143	50
144	50
145	50
146	50
147	50
148	50
149	50
150	50
151	50
152	50
153	50
154	50
155	50
156	50
157	50
158	50
159	50
160	50
161	50
162	50
163	50
164	50
165	50
166	50
167	50
168	50
169	50
170	50
171	50
172	50
173	50
174	50
175	50
176	50
177	50
178	50
179	50
180	50
181	50
182	50
183	50
184	50
185	50
186	50
187	50
188	50
189	50
190	50
191	50
192	50
193	50
194	50
195	50
196	50
197	50
198	50
199	50
200	50
201	50
202	50
203	50
204	50
205	50
206	50
207	50
208	50
209	100
210	100
211	100
212	100
213	100
214	100
215	100
216	100
217	100
218	100
219	100
220	100
221	100
222	100
223	100
224	100
225	100
226	100
227	100
228	100
229	100
230	100
231	100
232	100
233	100
234	100
235	100
236	100
237	100
238	100
239	100
240	100
241	100
242	100
243	100
244	100
245	100
246	100
247	100
248	100
249	100
250	100
251	100
252	100
253	100
254	100
255	100
256	100
257	100
258	100
259	100
260	100
261	100
262	100
263	100
264	100
265	100
266	100
267	100
268	100
269	100
270	100
271	100
272	100
273	100
274	100
275	100
276	100
277	100
278	100
279	100
280	100
281	100
282	100
283	100
284	100
285	100
286	100
287	100
288	100
289	100
290	100
291	100
292	100
293	100
294	100
295	100
296	100
297	100
298	100
299	100
300	100
301	100
302	100
303	100
304	100
305	100
306	100
307	100
308	100
309	100
310	100
311	100
312	100
313	100
314	100
315	100
316	100
317	100
318	100
319	100
320	100
321	100
322	100
323	100
324	100
325	100
326	100
327	100
328	100
329	100
330	100
331	100
332	100
333	100
334	100
335	100
336	100
337	100
338	100
339	100
340	100
341	100
342	100
343	100
344	100
345	100
346	100
347	100
348	100
349	100
350	100
351	100
352	100
353	100
354	100
355	100
356	100
357	100
358	100
359	100
360	100
361	100
362	100
363	100
364	100
365	100
366	100
367	100
368	100
369	100
370	100
371	100
372	100
373	100
374	100
375	100
376	100
377	100
378	100
379	100
380	100
381	100
382	100
383	100
384	100
385	100
386	100
387	100
388	100
389	100
390	100
391	100
392	100
393	100
394	100
395	100
396	100
397	100
398	100
399	100
400	100
401	100
402	100
403	100
404	100
405	100
406	100
407	100
408	100
409	100
410	100
411	100
412	100
413	100
414	100
415	100
416	100
417	200
418	200
419	200
420	200
421	200
422	200
423	200
424	200
425	200
426	200
427	200
428	200
429	200
430	200
431	200
432	200
433	200
434	200
435	200
436	200
437	200
438	200
439	200
440	200
441	200
442	200
443	200
444	200
445	200
446	200
447	200
448	200
449	200
450	200
451	200
452	200
453	200
454	200
455	200
456	200
457	200
458	200
459	200
460	200
461	200
462	200
463	200
464	200
465	200
466	200
467	200
468	200
469	200
470	200
471	200
472	200
473	200
474	200
475	200
476	200
477	200
478	200
479	200
480	200
481	200
482	200
483	200
484	200
485	200
486	200
487	200
488	200
489	200
490	200
491	200
492	200
493	200
494	200
495	200
496	200
497	200
498	200
499	200
500	200
501	200
502	200
503	200
504	200
505	200
506	200
507	200
508	200
509	200
510	200
511	200
512	200
513	200
514	200
515	200
516	200
517	200
518	200
519	200
520	200
521	200
522	200
523	200
524	200
525	200
526	200
527	200
528	200
529	200
530	200
531	200
532	200
533	200
534	200
535	200
536	200
537	200
538	200
539	200
540	200
541	200
542	200
543	200
544	200
545	200
546	200
547	200
548	200
549	200
550	200
551	200
552	200
553	200
554	200
555	200
556	200
557	200
558	200
559	200
560	200
561	200
562	200
563	200
564	200
565	200
566	200
567	200
568	200
569	200
570	200
571	200
572	200
573	200
574	200
575	200
576	200
577	200
578	200
579	200
580	200
581	200
582	200
583	200
584	200
585	200
586	200
587	200
588	200
589	200
590	200
591	200
592	200
593	200
594	200
595	200
596	200
597	200
598	200
599	200
600	200
601	200
602	200
603	200
604	200
605	200
606	200
607	200
608	200
609	200
610	200
611	200
612	200
613	200
614	200
615	200
616	200
617	200
618	200
619	200
620	200
621	200
622	200
623	200
624	200
DEPOT_SECTION
1
EOF
